InboundTrucks  = 50;
OutboundTrucks = 50;
InboundDoors   = 15;
OutboundDoors  = 15;
ReleaseTime    = [110,108,7,11,10,46,106,21,94,103,85,109,39,32,77,27,77,4,74,87,20,55,81,50,102,92,110,65,47,69,119,56,64,34,115,4,111,3,46,59,119,40,116,48,54,114,113,67,21,71];
UnloadTime     = [26,29,23,17,14,14,18,25,14,30,28,29,12,32,23,26,11,17,17,35,11,23,10,28,27,31,14,34,28,15,19,24,34,30,35,30,18,12,26,28,30,32,24,29,19,32,35,12,13,23];
LoadTime       = [7,7,17,15,9,18,7,20,7,10,6,8,7,18,7,20,6,20,13,5,6,11,10,8,7,7,12,5,12,6,12,20,15,17,20,10,14,11,17,5,18,9,6,7,13,15,18,6,17,15];
TransferTime   = [| 5,0,0,1,0,0,3,0,0,3,0,0,1,0,0,0,0,0,4,0,0,1,0,0,3,0,0,3,0,7,5,0,0,0,0,0,3,6,0,3,0,0,0,0,0,2,0,0,3,0 | 0,2,0,0,4,0,0,5,0,10,2,0,0,5,0,0,3,0,0,4,0,0,0,0,0,3,0,0,4,0,8,3,0,0,1,0,0,5,0,0,3,0,0,2,0,0,0,0,0,1 | 0,0,4,0,0,3,0,0,0,0,0,1,0,0,5,0,12,4,0,0,4,0,0,0,0,0,4,0,0,3,0,0,1,0,0,0,0,0,4,0,0,4,0,0,0,0,0,2,0,0 | 0,0,0,0,0,0,3,0,0,4,0,0,4,0,0,1,0,0,4,0,0,4,0,0,0,0,0,0,0,0,1,0,0,0,0,0,5,0,0,1,0,0,1,0,0,3,0,0,2,0 | 0,2,0,0,2,11,0,5,0,0,4,0,0,2,0,0,4,0,0,2,0,0,4,0,0,3,0,0,4,6,0,2,11,0,0,0,0,2,0,0,4,0,0,3,0,0,2,0,0,5 | 7,0,4,0,0,0,0,0,5,0,0,3,0,0,3,0,0,3,0,0,5,0,0,4,0,0,0,0,0,0,0,0,0,0,0,4,0,0,5,0,0,1,0,0,3,0,0,3,0,0 | 3,0,0,0,0,0,1,0,0,5,0,0,5,0,0,3,0,0,0,0,0,3,0,0,4,0,0,3,0,0,4,0,0,2,0,0,0,0,0,4,0,0,3,0,0,4,0,0,5,0 | 0,3,0,0,5,0,0,4,0,0,5,0,0,1,0,0,4,0,0,0,0,0,3,0,0,4,0,0,2,0,11,2,0,0,4,0,0,0,0,0,2,0,0,0,0,0,4,0,0,2 | 0,0,2,0,0,5,0,12,4,0,0,3,7,0,5,0,0,1,7,0,2,0,0,0,0,0,0,0,0,0,0,0,2,0,11,5,0,0,2,0,0,1,0,6,0,0,0,4,0,7 | 0,7,8,0,0,0,0,0,0,0,0,0,0,0,0,5,0,0,2,0,0,4,0,0,1,0,0,3,8,0,5,12,0,4,0,0,4,0,0,2,0,0,2,0,5,4,0,0,1,0 | 0,3,0,0,2,0,0,2,0,0,4,10,6,0,0,0,0,0,10,2,0,0,5,0,10,4,0,0,2,0,0,3,0,0,3,9,0,3,0,0,4,6,0,3,0,5,2,0,0,4 | 0,0,2,0,0,2,0,0,0,0,0,0,0,0,3,0,0,0,0,0,3,0,0,1,0,0,5,0,0,3,12,0,1,0,0,0,0,0,5,0,0,0,0,0,3,0,7,3,0,0 | 4,0,0,0,0,0,0,0,0,1,0,0,4,0,0,5,0,0,0,0,9,0,0,12,4,0,0,2,0,0,1,0,0,5,0,0,4,0,0,0,0,0,4,0,0,4,0,7,1,0 | 0,5,0,0,0,8,0,4,0,0,3,0,0,3,0,0,0,0,0,1,0,0,1,0,0,3,0,0,0,0,0,4,0,7,2,0,0,4,0,0,1,0,0,4,0,0,1,0,0,3 | 0,0,2,0,0,4,0,0,3,0,0,2,0,5,2,0,0,3,0,0,0,0,0,3,0,0,5,8,0,0,0,12,2,0,0,3,0,0,2,0,0,4,0,0,4,0,5,4,0,0 | 4,0,0,1,0,0,2,0,0,5,0,0,5,0,0,3,0,0,2,0,0,3,0,0,4,0,11,4,0,0,4,0,0,4,0,0,0,0,0,2,0,0,3,0,0,4,0,0,4,0 | 0,4,0,0,3,0,0,1,0,0,5,0,0,2,0,0,3,0,0,1,0,0,5,0,0,0,0,0,4,0,0,0,6,0,0,0,0,3,0,0,0,0,0,3,0,0,3,0,0,0 | 11,0,1,0,6,5,0,0,3,9,0,1,0,0,3,0,0,3,0,10,0,0,0,0,0,0,0,0,0,3,0,0,2,0,0,2,0,0,2,5,0,2,0,0,5,0,12,0,0,0 | 4,0,0,4,0,0,2,0,0,0,0,0,4,0,0,4,0,0,4,0,0,2,0,0,5,0,0,0,0,0,5,0,0,4,0,0,4,0,0,0,0,0,1,0,0,3,0,8,2,0 | 0,0,0,0,0,0,0,3,0,0,0,0,0,0,0,0,4,0,0,0,0,0,3,0,0,5,0,0,5,0,0,0,0,0,2,0,0,2,0,0,3,5,0,0,0,0,3,0,0,3 | 0,0,0,0,0,4,8,12,1,0,0,5,0,0,5,0,0,5,0,0,3,0,0,1,0,0,4,0,0,4,0,0,4,0,0,0,0,0,0,0,0,0,0,0,3,0,0,0,0,0 | 3,11,0,2,0,0,0,0,0,0,0,0,3,0,0,0,0,0,3,0,0,5,0,0,5,0,0,0,0,0,5,0,0,5,0,0,5,12,0,4,0,0,3,0,0,2,0,0,2,0 | 0,4,0,0,0,0,0,3,0,0,3,0,0,3,0,0,1,0,0,1,0,0,3,0,0,5,0,0,3,0,0,1,0,0,3,0,0,0,0,0,5,0,0,0,0,0,1,0,0,5 | 0,0,4,0,0,4,0,0,2,0,0,4,0,0,4,0,0,3,0,0,3,0,0,2,0,0,2,0,7,2,0,12,3,0,0,4,0,0,1,0,0,1,0,0,3,0,0,3,0,0 | 0,0,0,0,0,0,4,0,0,3,0,0,3,0,0,0,0,0,4,0,0,3,0,0,0,0,0,2,0,0,5,0,0,1,0,0,4,0,0,5,7,0,4,0,0,3,9,0,5,0 | 12,1,0,0,4,0,0,5,0,0,4,0,0,0,0,0,4,0,9,0,0,0,3,0,0,2,0,0,4,0,0,2,0,0,0,0,0,1,0,0,3,0,0,0,0,0,5,0,0,3 | 0,0,3,0,0,5,0,12,5,0,0,5,0,0,1,0,0,3,0,0,5,0,0,0,0,0,3,0,0,0,0,0,5,0,6,3,0,0,1,0,0,2,0,12,5,0,0,1,0,0 | 2,0,0,5,0,0,0,0,0,0,0,0,0,0,0,0,0,0,4,0,0,1,0,0,2,0,0,2,0,0,2,0,0,3,0,0,3,0,0,4,0,0,0,0,0,5,0,0,1,8 | 0,1,10,0,0,0,0,2,0,0,3,0,0,5,0,0,0,0,0,1,0,9,2,0,7,3,0,0,2,0,0,0,0,0,0,0,0,2,0,0,4,0,0,5,0,8,1,0,0,5 | 0,0,4,0,0,3,0,0,0,0,0,1,0,0,1,0,0,5,0,0,1,0,0,4,0,0,3,0,0,5,0,0,1,0,0,2,0,0,5,0,0,5,0,0,5,0,0,3,0,0 | 0,0,6,2,0,0,5,0,0,4,0,10,4,0,0,3,0,0,2,0,0,1,0,0,3,0,0,4,0,0,0,0,0,4,0,6,2,0,0,1,0,0,3,0,0,5,0,0,5,0 | 0,0,0,0,0,0,0,1,0,0,0,0,0,5,0,0,2,0,0,1,0,0,1,0,0,3,0,0,5,0,0,0,0,0,1,0,0,2,0,0,0,0,0,2,0,0,1,0,0,4 | 0,0,0,7,0,3,6,0,5,0,0,1,0,0,3,0,0,0,0,0,3,0,0,1,0,0,4,0,0,5,0,0,4,0,0,0,0,10,0,0,9,1,0,0,2,0,0,4,0,0 | 0,0,0,5,12,0,2,0,0,4,0,0,1,0,0,3,0,0,0,0,0,5,0,0,2,0,0,3,0,0,4,0,12,5,0,0,2,0,0,0,0,0,0,0,0,5,0,0,5,0 | 0,1,0,0,0,0,0,2,0,0,5,0,0,5,0,5,0,0,0,0,0,0,0,8,0,5,0,0,3,0,0,0,0,0,0,0,0,5,0,0,3,0,0,5,0,0,0,0,0,0 | 0,0,3,0,0,1,0,0,0,0,0,5,0,0,5,0,0,2,0,0,2,0,0,5,0,0,1,0,0,1,0,0,2,0,0,2,0,0,0,0,0,2,0,0,5,0,0,5,0,0 | 5,0,0,5,0,0,3,0,0,1,0,0,3,0,0,2,0,0,0,0,0,3,0,0,0,0,0,2,0,0,1,0,0,5,0,8,1,0,0,4,0,0,3,0,0,5,9,0,0,0 | 0,1,0,0,2,0,0,1,5,0,4,0,0,1,0,0,0,0,0,3,0,0,2,0,0,0,12,0,0,0,8,2,7,0,2,0,0,1,0,0,1,0,0,0,0,0,1,0,0,2 | 12,0,2,0,0,5,0,0,0,0,0,3,12,5,1,0,0,0,0,12,1,0,0,1,0,0,0,0,0,2,0,0,2,0,0,4,0,0,4,0,0,1,0,0,1,11,0,3,0,0 | 2,0,0,0,0,11,4,0,0,3,0,0,1,0,0,4,0,0,1,0,0,2,0,0,1,0,0,4,0,0,1,0,0,3,0,0,1,0,0,3,0,0,0,0,0,2,0,0,2,0 | 0,4,0,0,1,0,6,5,0,0,3,0,0,4,0,0,3,0,0,0,0,0,1,0,0,3,0,0,0,0,0,3,0,12,0,0,0,3,0,0,0,6,0,4,0,0,0,0,0,2 | 0,0,0,0,0,1,6,0,1,0,11,1,0,0,0,0,9,5,0,0,1,0,0,0,0,11,4,0,0,1,0,11,4,0,9,0,0,0,5,0,0,0,0,0,1,0,0,3,0,0 | 2,0,8,1,0,0,2,0,0,3,0,0,3,0,0,3,0,0,2,0,6,2,0,0,5,0,0,2,0,0,2,0,0,5,0,0,3,0,0,5,0,0,3,0,0,1,0,0,2,0 | 0,3,0,0,3,0,0,0,10,0,3,0,0,0,0,0,5,0,0,1,0,0,1,0,0,0,0,0,3,0,6,0,0,0,4,0,0,4,0,0,3,0,0,2,0,0,1,0,0,1 | 0,0,1,0,0,2,0,0,0,0,0,0,12,0,4,0,0,1,0,0,1,0,7,0,0,0,1,0,0,3,0,0,1,0,0,3,0,0,1,0,0,1,0,0,1,0,0,4,0,6 | 5,0,0,3,0,0,1,0,0,0,0,0,2,0,0,1,0,0,5,0,0,5,0,0,5,0,0,1,0,0,0,0,0,3,0,0,4,0,0,1,0,0,2,0,0,0,0,9,4,0 | 0,4,0,0,0,0,6,2,0,0,4,0,0,3,0,0,3,0,0,0,0,0,4,0,0,0,0,10,4,0,0,2,0,0,0,0,0,2,0,7,3,0,0,4,0,0,1,0,0,0 | 0,0,2,0,0,1,5,0,3,0,0,4,0,9,3,0,0,5,5,0,2,0,0,4,0,0,1,0,0,2,0,0,5,0,0,1,0,0,0,10,0,4,0,0,4,0,0,2,0,11 | 2,0,0,4,0,0,3,0,0,4,0,0,3,0,0,5,0,0,3,0,0,2,0,0,4,11,0,0,0,5,5,11,0,0,0,0,3,0,0,5,0,0,5,0,0,0,0,0,1,0 | 5,4,0,0,0,0,6,0,0,0,1,0,0,5,0,0,0,0,0,5,0,0,4,9,0,0,0,0,0,0,0,5,0,7,5,0,0,4,0,0,1,0,0,4,0,0,2,0,0,3 |];
